4 
5  31 51 
6  07 22 37 52 
7  07 22 37 52 
8  07 22 37 52 
9  07 22 35 50 
10  05 20 35 50 
11  05 20 35 50 
12  05 20 35 50 
13  05 21 37 52 
14  07 22 38 52 
15  07 22 35 50 
16  05 20 35 50 
17  05 20 35 50 
18  05 20 35 52 
19  07 21 35 50 
20  05 20 
21 
